20
4 3 44
6 0 42
6 2 37
7 5 11
9 2 39
9 6 40
9 8 71
10 1 13
10 8 50
11 1 34
11 3 57
11 8 44
12 3 4
12 9 76
13 0 18
13 4 35
13 7 59
14 7 65
15 8 17
15 10 25
16 5 4
16 14 53
17 0 38
17 9 61
17 12 40
18 1 48
18 6 51
18 9 28
19 9 54
19 12 53
19 13 33
19 15 67
